5 4 0 7 4 0 9 4 7 -1 
6 8 2 3 10 8 3 -1 3 -1 
10 8 1 2 -1 8 7 7 1 -1 
1 5 0 1 2 9 0 9 10 -1 
10 8 2 2 -1 1 2 -1 5 -1 
0 9 10 -1 1 1 5 5 10 -1 
0 10 9 3 1 0 3 9 1 -1 
0 -1 6 6 0 2 4 9 6 -1 
1 0 7 10 3 6 -1 7 10 -1 
1 -1 7 4 8 -1 8 -1 9 -1 
